NAME          ClpDefau  FREE
ROWS
 N  OBJROW
 L  ZMUNI1_PCT
 L  ZMUNI2_PCT
 L  ZMUNI3_PCT
 L  ZMUNI4_PCT
 L  ZMUNI5_PCT
 L  ZMUNI6_PCT
 L  ZMUNI7_PCT
 L  ZMUNI8_PCT
 L  ZMUNI9_PCT
COLUMNS
    QMUNI1 OBJROW 1.          
    QMUNI1 ZMUNI1_PCT 29834.1751  
    QMUNI1 ZMUNI2_PCT 1609.8022   
    QMUNI1 ZMUNI3_PCT 4054.2603   
    QMUNI1 ZMUNI4_PCT 2956.0089   
    QMUNI1 ZMUNI5_PCT  -393.486   
    QMUNI1 ZMUNI6_PCT  -182.9147  
    QMUNI1 ZMUNI7_PCT 1268.3869   
    QMUNI1 ZMUNI8_PCT 862.5031    
    QMUNI1 ZMUNI9_PCT  -13.5422   
    QMUNI2 OBJROW 1.          
    QMUNI2 ZMUNI1_PCT 1541.3284   
    QMUNI2 ZMUNI2_PCT 35540.9622  
    QMUNI2 ZMUNI3_PCT 2367.5919   
    QMUNI2 ZMUNI4_PCT 2570.1523   
    QMUNI2 ZMUNI5_PCT  -190.3534  
    QMUNI2 ZMUNI6_PCT  -113.8687  
    QMUNI2 ZMUNI7_PCT 453.1861    
    QMUNI2 ZMUNI8_PCT 625.9918    
    QMUNI2 ZMUNI9_PCT 480.2703    
    QMUNI3 OBJROW 1.          
    QMUNI3 ZMUNI1_PCT 4035.3775   
    QMUNI3 ZMUNI2_PCT 2581.5964   
    QMUNI3 ZMUNI3_PCT 31252.6703  
    QMUNI3 ZMUNI4_PCT 5028.1524   
    QMUNI3 ZMUNI5_PCT  -455.6656  
    QMUNI3 ZMUNI6_PCT  -266.2658  
    QMUNI3 ZMUNI7_PCT 1173.0195   
    QMUNI3 ZMUNI8_PCT 1119.9951   
    QMUNI3 ZMUNI9_PCT 531.7688    
    QMUNI4 OBJROW 1.          
    QMUNI4 ZMUNI1_PCT 3439.5217   
    QMUNI4 ZMUNI2_PCT 3260.8032   
    QMUNI4 ZMUNI3_PCT 5650.5203   
    QMUNI4 ZMUNI4_PCT 111858.1772 
    QMUNI4 ZMUNI5_PCT  -0.7629    
    QMUNI4 ZMUNI6_PCT 147.0566    
    QMUNI4 ZMUNI7_PCT 1562.5      
    QMUNI4 ZMUNI8_PCT 1572.0368   
    QMUNI4 ZMUNI9_PCT 1234.8175   
    QMUNI5 OBJROW 1.          
    QMUNI5 ZMUNI1_PCT  -72.0978   
    QMUNI5 ZMUNI2_PCT  -160.5988  
    QMUNI5 ZMUNI3_PCT  -107.9559  
    QMUNI5 ZMUNI4_PCT  -88.6917   
    QMUNI5 ZMUNI5_PCT 37184.906   
    QMUNI5 ZMUNI6_PCT 2353.2868   
    QMUNI5 ZMUNI7_PCT  -544.3573  
    QMUNI5 ZMUNI8_PCT  -686.6455  
    QMUNI5 ZMUNI9_PCT  -851.6312  
    QMUNI6 OBJROW 1.          
    QMUNI6 ZMUNI1_PCT 13.7329     
    QMUNI6 ZMUNI2_PCT  -242.8055  
    QMUNI6 ZMUNI3_PCT  -87.738    
    QMUNI6 ZMUNI4_PCT  -124.5499  
    QMUNI6 ZMUNI5_PCT 2722.7402   
    QMUNI6 ZMUNI6_PCT 33993.3396  
    QMUNI6 ZMUNI7_PCT  -194.5495  
    QMUNI6 ZMUNI8_PCT  -547.0276  
    QMUNI6 ZMUNI9_PCT  -940.5137  
    QMUNI7 OBJROW 1.          
    QMUNI7 ZMUNI1_PCT 888.8244    
    QMUNI7 ZMUNI2_PCT 245.8572    
    QMUNI7 ZMUNI3_PCT 699.8062    
    QMUNI7 ZMUNI4_PCT 468.8263    
    QMUNI7 ZMUNI5_PCT  -644.8746  
    QMUNI7 ZMUNI6_PCT  -411.2243  
    QMUNI7 ZMUNI7_PCT 32752.2278  
    QMUNI7 ZMUNI8_PCT 1234.436    
    QMUNI7 ZMUNI9_PCT  -682.6401  
    QMUNI8 OBJROW 1.          
    QMUNI8 ZMUNI1_PCT 833.1298    
    QMUNI8 ZMUNI2_PCT 715.065     
    QMUNI8 ZMUNI3_PCT 861.3586    
    QMUNI8 ZMUNI4_PCT 659.7519    
    QMUNI8 ZMUNI5_PCT  -372.6959  
    QMUNI8 ZMUNI6_PCT  -274.2767  
    QMUNI8 ZMUNI7_PCT 1734.9244   
    QMUNI8 ZMUNI8_PCT 29842.7582  
    QMUNI8 ZMUNI9_PCT 453.7582    
    QMUNI9 OBJROW 1.          
    QMUNI9 ZMUNI1_PCT 292.3965    
    QMUNI9 ZMUNI2_PCT 662.9944    
    QMUNI9 ZMUNI3_PCT 407.4097    
    QMUNI9 ZMUNI4_PCT 379.7531    
    QMUNI9 ZMUNI5_PCT  -414.2761  
    QMUNI9 ZMUNI6_PCT  -394.2489  
    QMUNI9 ZMUNI7_PCT  -61.798    
    QMUNI9 ZMUNI8_PCT 529.0985    
    QMUNI9 ZMUNI9_PCT 28779.0298  
RHS
    RHS ZMUNI1_PCT  -0.23924822
    RHS ZMUNI2_PCT 0.0159087618
    RHS ZMUNI3_PCT -0.058062043
    RHS ZMUNI4_PCT 0.4172648238
    RHS ZMUNI5_PCT 0.0586384348
    RHS ZMUNI6_PCT  -0.14491072
    RHS ZMUNI7_PCT 0.0006785726
    RHS ZMUNI8_PCT -0.02755801 
    RHS ZMUNI9_PCT 0.1525764751
BOUNDS
 LO BOUND QMUNI1 -0.000632457
 UP BOUND QMUNI1      1.1e+10
 LO BOUND QMUNI2 -0.000448537
 UP BOUND QMUNI2      1.1e+10
 LO BOUND QMUNI3 -0.000518194
 UP BOUND QMUNI3      1.1e+10
 LO BOUND QMUNI4 -0.000189183
 UP BOUND QMUNI4      1.1e+10
 LO BOUND QMUNI5 -0.000316189
 UP BOUND QMUNI5      1.1e+10
 LO BOUND QMUNI6 -0.000458992
 UP BOUND QMUNI6      1.1e+10
 LO BOUND QMUNI7 -0.000142873
 UP BOUND QMUNI7      1.1e+10
 LO BOUND QMUNI8 -0.00026109 
 UP BOUND QMUNI8      1.1e+10
 LO BOUND QMUNI9 -0.000263041
 UP BOUND QMUNI9      1.1e+10
ENDATA
